\ENCODING=ISO-8859-1
\Problem name: 

Maximize
 obj: x0 + x1 + x2 + x3 + x4 + x5 + x6 + x7
Subject To
 c1:  x0 + x1 >= 1
 c2:  x1 + x2 >= 1
 c3:  x3 + x4 >= 1
 c4:  x6 + x7 >= 1
 c5:  x5 + x6 >= 1
 c6:  x1 + x5 >= 1
 c7:  x0 + x5 >= 1
 c8:  x3 + x6 >= 1
 c9:  x1 + x3 >= 1
 c10: x4 + x7 >= 1
 c11: x2 + x4 >= 1
Bounds
      x0 >= 0
      x1 >= 0
      x2 >= 0
      x3 >= 0
      x4 >= 0
      x5 >= 0
      x6 >= 0
      x7 >= 0
Generals
 x0  x1  x2  x3  x4  x5  x6  x7 
End
